[VALIDATOR STDOUT]
Checking plan: /home/jfan5/Safety-gen/runs/benchmark/optic/blocksworld_20260129_162121/blocksworld/optic_results/bw_ops3_n12_seed12001.plan
Plan executed successfully - checking goal
Plan valid
Final value: 50 

Successful plans:
Value: 50
 /home/jfan5/Safety-gen/runs/benchmark/optic/blocksworld_20260129_162121/blocksworld/optic_results/bw_ops3_n12_seed12001.plan 50
